n_res = 4;
rc = [ 32, 22, 26, 23 ];
n_tasks = 30;
d = [ 6, 9, 7, 1, 2, 5, 7, 7, 7, 1, 3, 1, 8, 1, 7, 1, 2, 6, 4, 9, 6, 5, 2, 9, 1, 2, 8, 5, 5, 10 ];
rr = [| 1, 7, 10, 1, 0, 5, 0, 0, 7, 8, 5, 0, 8, 9, 0, 0, 3, 0, 0, 0, 4, 0, 0, 9, 9, 5, 0, 0, 5, 4
      | 0, 7, 0, 0, 0, 0, 0, 5, 2, 0, 6, 7, 0, 0, 0, 0, 7, 0, 9, 6, 0, 0, 0, 0, 4, 4, 0, 9, 6, 4
      | 0, 3, 10, 8, 5, 10, 3, 1, 0, 3, 0, 0, 10, 0, 0, 10, 0, 0, 5, 0, 0, 9, 8, 8, 7, 0, 0, 9, 0, 8
      | 2, 0, 3, 9, 9, 0, 9, 0, 0, 10, 0, 8, 4, 0, 9, 0, 0, 8, 0, 0, 10, 0, 0, 0, 0, 0, 4, 5, 0, 6 |];
suc = [ { 2 }, 
        { 1 }, 
        { 4 }, 
        { 3 }, 
        { 6 }, 
        { 5 }, 
        { 8 }, 
        { 7 }, 
        { 10 }, 
        { 9 }, 
        { 12 }, 
        { 11 }, 
        { 14 }, 
        { 13 }, 
        { 16 }, 
        { 15 }, 
        { 18 }, 
        { 17 }, 
        { 20 }, 
        { 19 }, 
        { 22 }, 
        { 21 }, 
        { 24 }, 
        { 23 }, 
        { 26 }, 
        { 25 }, 
        { 28 }, 
        { 27 }, 
        { 30 }, 
        { 29 }]; 
